c is-unsat
p cnf 10 70
9 5 -6 0
9 -2 -10 0
-2 -7 -8 0
2 10 -9 0
-1 9 -10 0
9 -3 -8 0
-8 -5 -6 0
-4 -1 -7 0
-6 1 10 0
-10 -9 -8 0
-1 -7 -6 0
-2 -4 -10 0
10 -4 9 0
-4 -5 -3 0
-9 -5 4 0
4 3 -10 0
-2 -6 -8 0
7 -8 -10 0
-1 4 6 0
-3 -4 -5 0
9 -4 6 0
6 -3 10 0
-6 -1 2 0
7 2 9 0
-7 -1 -6 0
1 6 -5 0
-1 -10 2 0
-1 6 3 0
2 -1 -3 0
-2 -8 -1 0
-3 -4 -9 0
4 -1 -9 0
-9 -1 -10 0
-3 -10 7 0
-6 8 -1 0
-8 -6 -1 0
-5 -2 7 0
5 -7 2 0
-8 -1 -2 0
4 -8 -2 0
8 9 -1 0
-5 4 9 0
8 6 -7 0
4 -2 9 0
-4 3 -1 0
4 -7 3 0
7 4 -2 0
7 -10 -9 0
-1 -4 9 0
-6 8 7 0
-5 -10 -1 0
-6 -8 7 0
-7 -3 -8 0
5 -10 -4 0
-7 -6 10 0
-10 -6 -5 0
-6 -5 -8 0
-4 1 -3 0
7 -6 -8 0
5 2 3 0
-3 10 2 0
-5 -4 8 0
1 5 -6 0
1 -2 7 0
4 -2 -8 0
-5 9 -2 0
-2 -4 -5 0
9 -1 7 0
-2 -1 -10 0
-9 1 7 0
